1569
1   1   0    39   0 3 27 35 19 11 5 0
1   2   0    48   0 1 9 12 14 6 0
1   3   0    53   0 2 10 18 26 34 33 25 17 36 28 20 4 0
1   4   0    24   0 7 8 0
1   5   0    0    0 0
2   1   0    48   0 43 45 48 47 0
2   2   0    52   0 55 63 62 70 78 79 71 53 61 69 77 80 72 64 56 0
2   3   0    49   0 42 50 24 37 29 21 13 31 39 74 66 58 0
2   4   0    60   0 49 57 65 73 38 30 22 23 15 16 32 40 75 67 59 51 0
2   5   0    59   0 46 54 76 68 60 52 44 41 0